; PUSH cw_3 PUSH cw_4 SLOAD DUP2 SWAP1 => PUSH cw_3 PUSH cw_3 PUSH cw_4 SLOAD
(set-option :produce-proofs true)
; 
(set-info :status unknown)
(declare-fun storage_t ((_ BitVec 256) (_ BitVec 256) (_ BitVec 256) Int (_ BitVec 256)) (_ BitVec 256))
(declare-fun w_4 () (_ BitVec 256))
(declare-fun w_3 () (_ BitVec 256))
(declare-fun storage_s ((_ BitVec 256) (_ BitVec 256) (_ BitVec 256) Int (_ BitVec 256)) (_ BitVec 256))
(declare-fun exc_halt_t (Int) Bool)
(declare-fun exc_halt_s (Int) Bool)
(declare-fun sc_t (Int) (_ BitVec 6))
(declare-fun stack_t ((_ BitVec 256) (_ BitVec 256) (_ BitVec 256) Int (_ BitVec 6)) (_ BitVec 256))
(declare-fun stack_s ((_ BitVec 256) (_ BitVec 256) (_ BitVec 256) Int (_ BitVec 6)) (_ BitVec 256))
(declare-fun sc_s (Int) (_ BitVec 6))
(declare-fun used_gas_t ((_ BitVec 256) (_ BitVec 256) (_ BitVec 256) Int) Int)
(declare-fun used_gas_s ((_ BitVec 256) (_ BitVec 256) (_ BitVec 256) Int) Int)
(assert
 (exists ((x_SLOAD_0 (_ BitVec 256)) )(let (($x11206 (forall ((w (_ BitVec 256)) )(let ((?x11204 (storage_t x_SLOAD_0 w_3 w_4 4 w)))
 (let ((?x11001 (storage_s x_SLOAD_0 w_3 w_4 5 w)))
 (= ?x11001 ?x11204))))
 ))
 (let (($x3723 (exc_halt_t 4)))
 (let (($x3979 (exc_halt_s 5)))
 (let (($x7567 (= $x3979 $x3723)))
 (let (($x169 (forall ((n (_ BitVec 6)) )(let ((?x10993 (stack_t x_SLOAD_0 w_3 w_4 4 n)))
 (let ((?x11200 (stack_s x_SLOAD_0 w_3 w_4 5 n)))
 (let (($x3861 (= ?x11200 ?x10993)))
 (or $x3861 (bvsle (sc_t 4) n))))))
 ))
 (let ((?x3757 (sc_t 4)))
 (let ((?x805 (sc_s 5)))
 (let (($x9143 (= ?x805 ?x3757)))
 (let ((?x11177 (used_gas_t x_SLOAD_0 w_3 w_4 0)))
 (let ((?x11176 (used_gas_s x_SLOAD_0 w_3 w_4 0)))
 (let (($x11178 (= ?x11176 ?x11177)))
 (let (($x11164 (forall ((w (_ BitVec 256)) )(let ((?x11170 (storage_t x_SLOAD_0 w_3 w_4 0 w)))
 (let ((?x11169 (storage_s x_SLOAD_0 w_3 w_4 0 w)))
 (= ?x11169 ?x11170))))
 ))
 (let (($x56 (exc_halt_t 0)))
 (let (($x57 (exc_halt_s 0)))
 (let (($x58 (= $x57 $x56)))
 (let (($x5062 (forall ((n (_ BitVec 6)) )(let ((?x11142 (stack_t x_SLOAD_0 w_3 w_4 0 n)))
 (let ((?x11141 (stack_s x_SLOAD_0 w_3 w_4 0 n)))
 (let (($x11143 (= ?x11141 ?x11142)))
 (let ((?x63 (sc_t 0)))
 (let (($x5858 (bvsle ?x63 n)))
 (or $x5858 $x11143)))))))
 ))
 (let ((?x63 (sc_t 0)))
 (let ((?x72 (sc_s 0)))
 (let (($x73 (= ?x72 ?x63)))
 (let (($x5226 (= $x3723 (or (exc_halt_t 3) (not (bvsle (_ bv0 6) (bvadd (_ bv63 6) (sc_t 3))))))))
 (let (($x10922 (forall ((w (_ BitVec 256)) )(let ((?x3141 (storage_t x_SLOAD_0 w_3 w_4 3 w)))
 (let ((?x11204 (storage_t x_SLOAD_0 w_3 w_4 4 w)))
 (= ?x11204 ?x3141))))
 ))
 (let (($x10876 (forall ((n (_ BitVec 6)) )(let ((?x11107 (stack_t x_SLOAD_0 w_3 w_4 3 n)))
 (let ((?x10993 (stack_t x_SLOAD_0 w_3 w_4 4 n)))
 (or (bvsle (bvadd (_ bv63 6) (sc_t 3)) n) (= ?x10993 ?x11107)))))
 ))
 (let (($x4951 (= (used_gas_t x_SLOAD_0 w_3 w_4 4) (+ 200 (used_gas_t x_SLOAD_0 w_3 w_4 3)))))
 (let ((?x487 (storage_t x_SLOAD_0 w_3 w_4 3 (stack_t x_SLOAD_0 w_3 w_4 3 (bvadd (_ bv63 6) (sc_t 3))))))
 (let (($x903 (exc_halt_t 2)))
 (let (($x10874 (or $x903 (not (= ((_ extract 6 6) (bvadd (_ bv1 7) (concat (_ bv0 1) (sc_t 2)))) (_ bv0 1))))))
 (let (($x10336 (exc_halt_t 3)))
 (let (($x10882 (forall ((w (_ BitVec 256)) )(let ((?x11002 (storage_t x_SLOAD_0 w_3 w_4 2 w)))
 (let ((?x3141 (storage_t x_SLOAD_0 w_3 w_4 3 w)))
 (= ?x3141 ?x11002))))
 ))
 (let (($x10881 (forall ((n (_ BitVec 6)) )(let ((?x10994 (stack_t x_SLOAD_0 w_3 w_4 2 n)))
 (let ((?x11107 (stack_t x_SLOAD_0 w_3 w_4 3 n)))
 (or (bvsle (sc_t 2) n) (= ?x11107 ?x10994)))))
 ))
 (let ((?x11073 (used_gas_t x_SLOAD_0 w_3 w_4 3)))
 (let (($x1920 (exc_halt_t 1)))
 (let (($x5178 (or (not (= ((_ extract 6 6) (bvadd (_ bv1 7) (concat (_ bv0 1) (sc_t 1)))) (_ bv0 1))) $x1920)))
 (let (($x6268 (forall ((w (_ BitVec 256)) )(let ((?x10944 (storage_t x_SLOAD_0 w_3 w_4 1 w)))
 (let ((?x11002 (storage_t x_SLOAD_0 w_3 w_4 2 w)))
 (= ?x11002 ?x10944))))
 ))
 (let (($x10920 (forall ((n (_ BitVec 6)) )(let ((?x9438 (stack_t x_SLOAD_0 w_3 w_4 1 n)))
 (let ((?x10994 (stack_t x_SLOAD_0 w_3 w_4 2 n)))
 (or (bvsle (sc_t 1) n) (= ?x10994 ?x9438)))))
 ))
 (let ((?x2538 (used_gas_t x_SLOAD_0 w_3 w_4 2)))
 (let (($x2670 (= $x1920 (or $x56 (not (= ((_ extract 6 6) (bvadd (_ bv1 7) (concat (_ bv0 1) ?x63))) (_ bv0 1)))))))
 (let (($x5192 (forall ((w (_ BitVec 256)) )(let ((?x11170 (storage_t x_SLOAD_0 w_3 w_4 0 w)))
 (let ((?x10944 (storage_t x_SLOAD_0 w_3 w_4 1 w)))
 (= ?x10944 ?x11170))))
 ))
 (let (($x6085 (forall ((n (_ BitVec 6)) )(let ((?x11142 (stack_t x_SLOAD_0 w_3 w_4 0 n)))
 (let ((?x9438 (stack_t x_SLOAD_0 w_3 w_4 1 n)))
 (let ((?x63 (sc_t 0)))
 (let (($x5858 (bvsle ?x63 n)))
 (or $x5858 (= ?x9438 ?x11142)))))))
 ))
 (let (($x4660 (= $x3979 (or (exc_halt_s 4) (not (bvsle (_ bv0 6) (bvadd (_ bv62 6) (sc_s 4))))))))
 (let (($x10900 (forall ((w (_ BitVec 256)) )(let ((?x2135 (storage_s x_SLOAD_0 w_3 w_4 4 w)))
 (let ((?x11001 (storage_s x_SLOAD_0 w_3 w_4 5 w)))
 (= ?x11001 ?x2135))))
 ))
 (let (($x10899 (forall ((n (_ BitVec 6)) )(let ((?x3563 (stack_s x_SLOAD_0 w_3 w_4 4 n)))
 (let ((?x11200 (stack_s x_SLOAD_0 w_3 w_4 5 n)))
 (or (bvsle (bvadd (_ bv62 6) (sc_s 4)) n) (= ?x11200 ?x3563)))))
 ))
 (let (($x10561 (= (used_gas_s x_SLOAD_0 w_3 w_4 5) (+ 3 (used_gas_s x_SLOAD_0 w_3 w_4 4)))))
 (let ((?x332 (stack_s x_SLOAD_0 w_3 w_4 4 (bvadd (_ bv63 6) (sc_s 4)))))
 (let (($x8784 (= (stack_s x_SLOAD_0 w_3 w_4 5 (bvadd (_ bv63 6) ?x805)) (stack_s x_SLOAD_0 w_3 w_4 4 (bvadd (_ bv62 6) (sc_s 4))))))
 (let (($x292 (exc_halt_s 3)))
 (let (($x10584 (or $x292 (not (bvsle (_ bv0 6) (bvadd (_ bv62 6) (sc_s 3)))) (not (= ((_ extract 6 6) (bvadd (_ bv1 7) (concat (_ bv0 1) (sc_s 3)))) (_ bv0 1))))))
 (let (($x64 (exc_halt_s 4)))
 (let (($x2916 (forall ((w (_ BitVec 256)) )(let ((?x2110 (storage_s x_SLOAD_0 w_3 w_4 3 w)))
 (let ((?x2135 (storage_s x_SLOAD_0 w_3 w_4 4 w)))
 (= ?x2135 ?x2110))))
 ))
 (let (($x852 (forall ((n (_ BitVec 6)) )(let ((?x10946 (stack_s x_SLOAD_0 w_3 w_4 3 n)))
 (let ((?x3563 (stack_s x_SLOAD_0 w_3 w_4 4 n)))
 (or (bvsle (bvadd (_ bv62 6) (sc_s 3)) n) (= ?x3563 ?x10946)))))
 ))
 (let ((?x6102 (used_gas_s x_SLOAD_0 w_3 w_4 4)))
 (let ((?x275 (sc_s 3)))
 (let ((?x10578 (bvadd (_ bv63 6) ?x275)))
 (let ((?x4908 (stack_s x_SLOAD_0 w_3 w_4 3 ?x10578)))
 (let ((?x10428 (bvadd (_ bv62 6) ?x275)))
 (let ((?x10435 (stack_s x_SLOAD_0 w_3 w_4 3 ?x10428)))
 (let (($x625 (= $x292 (or (exc_halt_s 2) (not (bvsle (_ bv0 6) (bvadd (_ bv63 6) (sc_s 2))))))))
 (let (($x10989 (forall ((w (_ BitVec 256)) )(let ((?x213 (storage_s x_SLOAD_0 w_3 w_4 2 w)))
 (let ((?x2110 (storage_s x_SLOAD_0 w_3 w_4 3 w)))
 (= ?x2110 ?x213))))
 ))
 (let (($x10988 (forall ((n (_ BitVec 6)) )(let ((?x201 (stack_s x_SLOAD_0 w_3 w_4 2 n)))
 (let ((?x10946 (stack_s x_SLOAD_0 w_3 w_4 3 n)))
 (or (bvsle (bvadd (_ bv63 6) (sc_s 2)) n) (= ?x10946 ?x201)))))
 ))
 (let ((?x2285 (used_gas_s x_SLOAD_0 w_3 w_4 3)))
 (let ((?x10723 (storage_s x_SLOAD_0 w_3 w_4 2 (stack_s x_SLOAD_0 w_3 w_4 2 (bvadd (_ bv63 6) (sc_s 2))))))
 (let (($x189 (exc_halt_s 1)))
 (let (($x2642 (or $x189 (not (= ((_ extract 6 6) (bvadd (_ bv1 7) (concat (_ bv0 1) (sc_s 1)))) (_ bv0 1))))))
 (let (($x247 (exc_halt_s 2)))
 (let (($x6886 (forall ((w (_ BitVec 256)) )(let ((?x10956 (storage_s x_SLOAD_0 w_3 w_4 1 w)))
 (let ((?x213 (storage_s x_SLOAD_0 w_3 w_4 2 w)))
 (= ?x213 ?x10956))))
 ))
 (let (($x1844 (forall ((n (_ BitVec 6)) )(let ((?x583 (stack_s x_SLOAD_0 w_3 w_4 1 n)))
 (let ((?x201 (stack_s x_SLOAD_0 w_3 w_4 2 n)))
 (or (= ?x201 ?x583) (bvsle (sc_s 1) n)))))
 ))
 (let ((?x803 (used_gas_s x_SLOAD_0 w_3 w_4 2)))
 (let (($x2046 (= $x189 (or $x57 (not (= ((_ extract 6 6) (bvadd (_ bv1 7) (concat (_ bv0 1) ?x72))) (_ bv0 1)))))))
 (let (($x6583 (forall ((w (_ BitVec 256)) )(let ((?x11169 (storage_s x_SLOAD_0 w_3 w_4 0 w)))
 (let ((?x10956 (storage_s x_SLOAD_0 w_3 w_4 1 w)))
 (= ?x10956 ?x11169))))
 ))
 (let (($x2292 (forall ((n (_ BitVec 6)) )(let ((?x11141 (stack_s x_SLOAD_0 w_3 w_4 0 n)))
 (let ((?x583 (stack_s x_SLOAD_0 w_3 w_4 1 n)))
 (or (bvsle (sc_s 0) n) (= ?x583 ?x11141)))))
 ))
 (let (($x31 (forall ((w (_ BitVec 256)) )(let ((?x2235 (ite (= w (stack_s x_SLOAD_0 w_3 w_4 2 (bvadd (_ bv63 6) (sc_s 2)))) x_SLOAD_0 (_ bv0 256))))
 (let ((?x11169 (storage_s x_SLOAD_0 w_3 w_4 0 w)))
 (= ?x11169 ?x2235))))
 ))
 (let (($x2968 (= ?x11176 0)))
 (let (($x136 (= ?x72 (_ bv0 6))))
 (and $x136 (not $x57) $x2968 $x31 (= (stack_s x_SLOAD_0 w_3 w_4 1 ?x72) w_3) (= (used_gas_s x_SLOAD_0 w_3 w_4 1) (+ 3 ?x11176)) (= (sc_s 1) (bvadd (_ bv1 6) ?x72)) $x2292 $x6583 $x2046 (= (stack_s x_SLOAD_0 w_3 w_4 2 (sc_s 1)) w_4) (= ?x803 (+ 3 (used_gas_s x_SLOAD_0 w_3 w_4 1))) (= (sc_s 2) (bvadd (_ bv1 6) (sc_s 1))) $x1844 $x6886 (= $x247 $x2642) (= ?x4908 ?x10723) (= ?x2285 (+ 200 ?x803)) (= ?x275 (sc_s 2)) $x10988 $x10989 $x625 (= ?x332 ?x10435) (= (stack_s x_SLOAD_0 w_3 w_4 4 ?x10428) ?x10435) (= (stack_s x_SLOAD_0 w_3 w_4 4 ?x10578) ?x4908) (= ?x6102 (+ 3 ?x2285)) (= (sc_s 4) (bvadd (_ bv1 6) ?x275)) $x852 $x2916 (= $x64 $x10584) $x8784 (= (stack_s x_SLOAD_0 w_3 w_4 5 (bvadd (_ bv62 6) ?x805)) ?x332) $x10561 (= ?x805 (sc_s 4)) $x10899 $x10900 $x4660 (= (stack_t x_SLOAD_0 w_3 w_4 1 ?x63) w_3) (= (used_gas_t x_SLOAD_0 w_3 w_4 1) (+ 3 ?x11177)) (= (sc_t 1) (bvadd (_ bv1 6) ?x63)) $x6085 $x5192 $x2670 (= (stack_t x_SLOAD_0 w_3 w_4 2 (sc_t 1)) w_3) (= ?x2538 (+ 3 (used_gas_t x_SLOAD_0 w_3 w_4 1))) (= (sc_t 2) (bvadd (_ bv1 6) (sc_t 1))) $x10920 $x6268 (= $x903 $x5178) (= (stack_t x_SLOAD_0 w_3 w_4 3 (sc_t 2)) w_4) (= ?x11073 (+ 3 ?x2538)) (= (sc_t 3) (bvadd (_ bv1 6) (sc_t 2))) $x10881 $x10882 (= $x10336 $x10874) (= (stack_t x_SLOAD_0 w_3 w_4 4 (bvadd (_ bv63 6) ?x3757)) ?x487) $x4951 (= ?x3757 (sc_t 3)) $x10876 $x10922 $x5226 $x73 $x5062 $x58 $x11164 $x11178 (not (and $x9143 $x169 $x7567 $x11206))))))))))))))))))))))))))))))))))))))))))))))))))))))))))))))))))))))))))))
 )
(check-sat)
(get-proof)
